units		real
atom_style	full
boundary	p p p
newton		on 

#----------------------------------------------------
#INPUT FILE
#----------------------------------------------------

read_data	inputFiles/graphene.lmpsys

#----------------------------------------------------
#GROUP
#----------------------------------------------------

group		g1 id 1 2 3 4 5 6 7 8 9 10 11 12 13 14 15

#----------------------------------------------------
#POTENTIAL
#----------------------------------------------------

pair_style 	rebo 	
pair_coeff 	* * inputFiles/CH.airebo.real C 

#----------------------------------------------------
#INITIALIZATION
#----------------------------------------------------

velocity       all create 300 1234567 mom yes rot yes 

#----------------------------------------------------
#NEIGHBOUR LIST
#----------------------------------------------------

neighbor	2.5 bin
neigh_modify	every 1 delay 0 check yes

#----------------------------------------------------
#FORCE
#----------------------------------------------------

variable	Fx equal fcm(all,x)
variable	Fy equal fcm(all,y)

#----------------------------------------------------
#LOG
#----------------------------------------------------

thermo_style    custom step temp pe ke etotal v_Fx v_Fy
thermo          100  
log             outputFiles/thermo.log

#----------------------------------------------------
#COMPUTE
#----------------------------------------------------

compute		c1 all temp

#----------------------------------------------------
#TIMESTEP
#----------------------------------------------------

timestep	1

#----------------------------------------------------
#NPT RUN
#----------------------------------------------------

fix		fxnpt all npt temp 300 300 100 iso 1.0 1.0 1000.0 

dump            dmpall all dcd 1000 outputFiles/graphene1.dcd   

run		100000

undump		dmpall

unfix		fxnpt


#----------------------------------------------------
#NVT RUN
#----------------------------------------------------

fix 		fxnvt all nvt temp 300.0 300.0 100.0
fix 		fxmom all momentum 1 linear 1 1 1 angular

#----------------------------------------------------
#EQUILIBRATION RUN
#----------------------------------------------------

dump            dmpall all dcd 1000 outputFiles/graphene2.dcd   

run 		100000

undump		dmpall

#----------------------------------------------------
#TEST RUN 
#----------------------------------------------------

#unfix		fxnvt
#fix		fxnve all nve 

#run 		500000

#unfix		fxnve
#fix		fxnvt all nvt temp 300.0  300.0 100.0

#----------------------------------------------------
#DUMP FILES
#----------------------------------------------------

dump            dmpvel g1 custom 6 outputFiles/velocity.dat id vx vy vz
dump_modify	dmpvel sort id

dump            dmpall all dcd 1000 outputFiles/graphene3.dcd   

#----------------------------------------------------
#PRODUCTION RUN
#----------------------------------------------------

run 		1000000







