units		real
atom_style	full

#----------------------------------------------------
#INPUT FILE
#----------------------------------------------------

read_data	inputFiles/graphene.lmpsys

#----------------------------------------------------
#POTENTIAL
#----------------------------------------------------

pair_style 	rebo
pair_coeff 	* * inputFiles/CH.airebo.real C 

#----------------------------------------------------
#INITIALIZATION
#----------------------------------------------------

velocity       all create 300 1234567 mom yes rot yes 

#----------------------------------------------------
#FORCE
#----------------------------------------------------

variable	Fx equal fcm(all,x)
variable	Fy equal fcm(all,y)

#----------------------------------------------------
#LOG
#----------------------------------------------------

thermo_style    custom step temp pe ke etotal v_Fx v_Fy
thermo          1000  
log             outputFiles/thermo.log

#----------------------------------------------------
#TIMESTEP
#----------------------------------------------------

timestep	1

#----------------------------------------------------
#FIXES
#----------------------------------------------------

fix 		fxnvt all nvt temp 300.0 300.0 100.0
fix 		fxmom all momentum 1 linear 1 1 1 angular

#----------------------------------------------------
#EQUILIBRATION RUN
#----------------------------------------------------

run 		1000000

#----------------------------------------------------
#TEST RUN 
#----------------------------------------------------

unfix		fxnvt
fix		fxnve all nve 

run 		500000

#unfix		fxnve
#fix		fxnvt all nvt temp 300.0  300.0 100.0

#----------------------------------------------------
#DUMP FILES
#----------------------------------------------------

dump            dmpvel all custom 100 outputFiles/vel.dat id vx vy vz
dump            dmpall all dcd 1000 outputFiles/graphene.dcd   

#----------------------------------------------------
#PRODUCTION RUN
#----------------------------------------------------

run 		1000000







